Traveling Salesman Problem/TSP_generados/Aleatorio1620390899_7.tsp
NAME: Aleatorio1620390899_7.tsp
COMMENT: Randomly generated scenario
TYPE: TSP
DIMENSION: 7
EDGE_WEIGHT_TYPE: ATT
NODE_COORD_SECTION
1 12.54 18.53
2 34.06 5.86
3 45.77 48.48
4 23.94 25.31
5 15.94 23.35
6 10.37 5.83
7 19.23 41.69
