Traveling Salesman Problem/TSP_generados/Aleatorio1620390899_7.opt.tour
NAME: Aleatorio1620390899_7.opt.tour
COMMENT: Optimal solution for Aleatorio1620390899_7 (139.34713671485426)
TYPE: TOUR
DIMENSION: 7
TOUR_SECTION
1 6 2 3 7 4 5
-1
EOF
